NAME : explosion
TYPE : TSP
DIMENSION : 50
EDGE_WEIGHT_TYPE : EUC_2D
NODE_COORD_SECTION
1 820075 398136
2 415223 297240
3 348870 519392
4 665923 570163
5 219887 35010
6 503639 359106
7 128231 94783
8 403933 595845
9 105427 541199
10 46356 73254
11 192821 361234
12 846554 393521
13 620521 449409
14 174847 774832
15 545298 582670
16 97420 568434
17 269136 367996
18 84564 983836
19 61523 273809
20 290064 488634
21 289621 408254
22 981474 257534
23 966833 527787
24 167633 401918
25 860946 928816
26 165070 593728
27 401553 166252
28 580833 545492
29 655375 1056
30 7217 987485
31 12325 170411
32 365588 386395
33 128447 936380
34 246343 225008
35 668478 399612
36 310807 336102
37 348096 373734
38 724642 628612
39 804833 118103
40 393517 204778
41 4502 99652
42 446264 157976
43 214430 107068
44 42907 111698
45 465406 273994
46 568642 450882
47 445258 128123
48 202089 6765
49 462314 4097
50 225094 376397
EOF
